p cnf 274 558
181 0
-182 0
-183 0
-184 0
-185 0
-186 0
-187 0
-188 0
-43 179 0
-179 43 0
-189 194 195 196 197 198 0
-194 -195 0
-194 -196 0
-194 -197 0
-194 -198 0
-195 -196 0
-195 -197 0
-195 -198 0
-196 -197 0
-196 -198 0
-197 -198 0
-189 199 200 201 202 203 204 205 0
-199 -200 0
-199 -201 0
-199 -202 0
-199 -203 0
-199 -204 0
-199 -205 0
-200 -201 0
-200 -202 0
-200 -203 0
-200 -204 0
-200 -205 0
-201 -202 0
-201 -203 0
-201 -204 0
-201 -205 0
-202 -203 0
-202 -204 0
-202 -205 0
-203 -204 0
-203 -205 0
-204 -205 0
-189 206 207 208 209 210 211 212 0
-206 -207 0
-206 -208 0
-206 -209 0
-206 -210 0
-206 -211 0
-206 -212 0
-207 -208 0
-207 -209 0
-207 -210 0
-207 -211 0
-207 -212 0
-208 -209 0
-208 -210 0
-208 -211 0
-208 -212 0
-209 -210 0
-209 -211 0
-209 -212 0
-210 -211 0
-210 -212 0
-211 -212 0
-189 193 0
-189 192 0
-189 -190 0
-194 -192 99 0
-198 -192 93 0
-195 -192 94 0
-196 -192 116 0
-197 -192 112 0
-197 -199 -193 114 0
-197 -204 -193 95 0
-197 -200 -193 96 0
-195 -203 -193 97 0
-197 -205 -193 98 0
-194 -200 -193 100 0
-196 -200 -193 117 0
-198 -203 -193 118 0
-196 -205 -193 102 0
-197 -202 -193 103 0
-196 -203 -193 104 0
-194 -203 -193 119 0
-198 -204 -193 106 0
-198 -200 -193 120 0
-194 -204 -193 121 0
-197 -201 -193 107 0
-195 -200 -193 108 0
-198 -199 -193 109 0
-198 -201 -193 110 0
-195 -205 -193 122 0
-198 -205 -193 111 0
-197 -203 -193 113 0
-194 -205 -193 123 0
-195 -201 -193 124 0
-194 -201 -193 125 0
-189 210 0
-189 -194 -206 0
-189 -194 -209 0
-189 -198 -209 0
-189 -196 -206 0
-189 -196 -208 0
-189 -196 -211 0
-189 -196 -209 0
-189 -195 -206 0
-189 -195 -211 0
-189 -195 -209 0
-189 -194 -202 0
-189 -194 -199 0
-189 -198 -202 0
-189 -196 -202 0
-189 -196 -201 0
-189 -196 -204 0
-189 -196 -199 0
-189 -195 -202 0
-189 -195 -204 0
-189 -195 -199 0
-90 189 0
-91 190 0
-189 90 0
-190 91 0
-213 215 0
-214 -215 0
-93 216 -189 198 0
-93 216 189 0
93 -216 -189 202 0
93 -216 189 0
-94 217 -189 195 0
-94 217 189 0
94 -217 -189 204 0
94 -217 189 0
-95 218 -189 -197 204 0
-95 218 -189 197 0
-95 218 189 0
95 -218 -189 -197 211 0
95 -218 -189 197 0
95 -218 189 0
-96 219 -189 -197 200 0
-96 219 -189 197 0
-96 219 189 0
96 -219 -189 -197 207 0
96 -219 -189 197 0
96 -219 189 0
-97 220 -189 -195 203 0
-97 220 -189 195 0
-97 220 189 0
97 -220 -189 -195 210 0
97 -220 -189 195 0
97 -220 189 0
-98 221 -189 -197 205 0
-98 221 -189 197 0
-98 221 189 0
98 -221 -189 -197 212 0
98 -221 -189 197 0
98 -221 189 0
-99 222 -189 194 0
-99 222 189 0
99 -222 -189 199 0
99 -222 189 0
-100 223 -189 -194 200 0
-100 223 -189 194 0
-100 223 189 0
100 -223 -189 -194 207 0
100 -223 -189 194 0
100 -223 189 0
-101 224 0
101 -224 -189 205 0
101 -224 189 0
-102 225 -189 -196 205 0
-102 225 -189 196 0
-102 225 189 0
102 -225 -189 -196 212 0
102 -225 -189 196 0
102 -225 189 0
-185 226 0
185 -226 -189 196 0
185 -226 189 0
-186 227 0
186 -227 -189 203 0
186 -227 189 0
-187 228 0
187 -228 -189 194 0
187 -228 189 0
-103 229 -189 -197 202 0
-103 229 -189 197 0
-103 229 189 0
103 -229 -189 -197 209 0
103 -229 -189 197 0
103 -229 189 0
-104 230 -189 -196 203 0
-104 230 -189 196 0
-104 230 189 0
104 -230 -189 -196 210 0
104 -230 -189 196 0
104 -230 189 0
-106 231 -189 -198 204 0
-106 231 -189 198 0
-106 231 189 0
106 -231 -189 -198 211 0
106 -231 -189 198 0
106 -231 189 0
-182 232 0
182 -232 -189 195 0
182 -232 189 0
-107 233 -189 -197 201 0
-107 233 -189 197 0
-107 233 189 0
107 -233 -189 -197 208 0
107 -233 -189 197 0
107 -233 189 0
-108 234 -189 -195 200 0
-108 234 -189 195 0
-108 234 189 0
108 -234 -189 -195 207 0
108 -234 -189 195 0
108 -234 189 0
-109 235 -189 -198 199 0
-109 235 -189 198 0
-109 235 189 0
109 -235 -189 -198 206 0
109 -235 -189 198 0
109 -235 189 0
-110 236 -189 -198 201 0
-110 236 -189 198 0
-110 236 189 0
110 -236 -189 -198 208 0
110 -236 -189 198 0
110 -236 189 0
-183 237 0
183 -237 -189 197 0
183 -237 189 0
-111 238 -189 -198 205 0
-111 238 -189 198 0
-111 238 189 0
111 -238 -189 -198 212 0
111 -238 -189 198 0
111 -238 189 0
-112 239 -189 197 0
-112 239 189 0
112 -239 0
-113 240 -189 -197 203 0
-113 240 -189 197 0
-113 240 189 0
113 -240 -189 -197 210 0
113 -240 -189 197 0
113 -240 189 0
-188 241 0
188 -241 -189 198 0
188 -241 189 0
-114 242 -189 -197 199 0
-114 242 -189 197 0
-114 242 189 0
114 -242 -189 -197 206 0
114 -242 -189 197 0
114 -242 189 0
-116 243 -189 196 0
-116 243 189 0
116 -243 -189 201 0
116 -243 189 0
-181 244 -189 210 0
-181 244 189 0
181 -244 0
-117 245 -189 -196 200 0
-117 245 -189 196 0
-117 245 189 0
117 -245 -189 -196 207 0
117 -245 -189 196 0
117 -245 189 0
-118 246 -189 -198 203 0
-118 246 -189 198 0
-118 246 189 0
118 -246 -189 -198 210 0
118 -246 -189 198 0
118 -246 189 0
-119 247 -189 -194 203 0
-119 247 -189 194 0
-119 247 189 0
119 -247 -189 -194 210 0
119 -247 -189 194 0
119 -247 189 0
-184 248 0
184 -248 -189 200 0
184 -248 189 0
-120 249 -189 -198 200 0
-120 249 -189 198 0
-120 249 189 0
120 -249 -189 -198 207 0
120 -249 -189 198 0
120 -249 189 0
-121 250 -189 -194 204 0
-121 250 -189 194 0
-121 250 189 0
121 -250 -189 -194 211 0
121 -250 -189 194 0
121 -250 189 0
-122 251 -189 -195 205 0
-122 251 -189 195 0
-122 251 189 0
122 -251 -189 -195 212 0
122 -251 -189 195 0
122 -251 189 0
-123 252 -189 -194 205 0
-123 252 -189 194 0
-123 252 189 0
123 -252 -189 -194 212 0
123 -252 -189 194 0
123 -252 189 0
-124 253 -189 -195 201 0
-124 253 -189 195 0
-124 253 189 0
124 -253 -189 -195 208 0
124 -253 -189 195 0
124 -253 189 0
-125 254 -189 -194 201 0
-125 254 -189 194 0
-125 254 189 0
125 -254 -189 -194 208 0
125 -254 -189 194 0
125 -254 189 0
-213 -214 0
-194 -255 228 0
-197 -255 237 0
-195 -255 232 0
-198 -255 241 0
-196 -255 226 0
-194 256 -222 0
-198 256 -216 0
-195 256 -217 0
-196 256 -243 0
-197 256 -239 0
-197 -199 257 -242 0
-197 -204 257 -218 0
-197 -200 257 -219 0
-195 -203 257 -220 0
-197 -205 257 -221 0
-194 -200 257 -223 0
-196 -200 257 -245 0
-198 -203 257 -246 0
-196 -205 257 -225 0
-197 -202 257 -229 0
-196 -203 257 -230 0
-194 -203 257 -247 0
-198 -204 257 -231 0
-198 -200 257 -249 0
-194 -204 257 -250 0
-197 -201 257 -233 0
-195 -200 257 -234 0
-198 -199 257 -235 0
-198 -201 257 -236 0
-195 -205 257 -251 0
-198 -205 257 -238 0
-197 -203 257 -240 0
-194 -205 257 -252 0
-195 -201 257 -253 0
-194 -201 257 -254 0
-210 258 -244 0
-197 -206 -259 242 0
-197 -211 -259 218 0
-197 -207 -259 219 0
-195 -210 -259 220 0
-197 -212 -259 221 0
-194 -207 -259 223 0
-196 -207 -259 245 0
-198 -210 -259 246 0
-196 -212 -259 225 0
-197 -209 -259 229 0
-196 -210 -259 230 0
-194 -210 -259 247 0
-198 -211 -259 231 0
-198 -207 -259 249 0
-194 -211 -259 250 0
-197 -208 -259 233 0
-195 -207 -259 234 0
-198 -206 -259 235 0
-198 -208 -259 236 0
-195 -212 -259 251 0
-198 -212 -259 238 0
-197 -210 -259 240 0
-194 -212 -259 252 0
-195 -208 -259 253 0
-194 -208 -259 254 0
-203 -260 227 0
-202 -260 216 0
-204 -260 217 0
-200 -260 248 0
-199 -260 222 0
-201 -260 243 0
-205 -260 224 0
-189 259 0
-189 255 0
-261 206 -194 0
-261 -206 194 0
-261 211 -195 0
-261 -211 195 0
-261 208 -196 0
-261 -208 196 0
-261 209 -198 0
-261 -209 198 0
-206 -194 261 0
-211 -195 261 0
-208 -196 261 0
-209 -198 261 0
-210 -261 0
-207 -261 0
-212 -261 0
-197 -261 0
-262 206 -199 0
-262 -206 199 0
-262 207 -200 0
-262 -207 200 0
-262 208 -201 0
-262 -208 201 0
-262 209 -202 0
-262 -209 202 0
-262 210 -203 0
-262 -210 203 0
-262 211 -204 0
-262 -211 204 0
-262 212 -205 0
-262 -212 205 0
-206 -199 262 0
-207 -200 262 0
-208 -201 262 0
-209 -202 262 0
-210 -203 262 0
-211 -204 262 0
-212 -205 262 0
-189 -258 261 0
-263 199 -206 0
-263 -199 206 0
-263 200 -207 0
-263 -200 207 0
-263 201 -208 0
-263 -201 208 0
-263 202 -209 0
-263 -202 209 0
-263 203 -210 0
-263 -203 210 0
-263 204 -211 0
-263 -204 211 0
-263 205 -212 0
-263 -205 212 0
-199 -206 263 0
-200 -207 263 0
-201 -208 263 0
-202 -209 263 0
-203 -210 263 0
-204 -211 263 0
-205 -212 263 0
-189 -257 263 0
-264 194 -199 0
-264 -194 199 0
-264 195 -204 0
-264 -195 204 0
-264 196 -201 0
-264 -196 201 0
-264 198 -202 0
-264 -198 202 0
-194 -199 264 0
-195 -204 264 0
-196 -201 264 0
-198 -202 264 0
-197 -264 0
-203 -264 0
-200 -264 0
-205 -264 0
-189 -256 264 0
-189 260 0
-90 214 0
-91 213 0
-214 90 0
-213 91 0
-216 151 -215 0
216 -151 -215 0
-217 152 -215 0
217 -152 -215 0
-218 153 -215 0
218 -153 -215 0
-219 154 -215 0
219 -154 -215 0
-220 155 -215 0
220 -155 -215 0
-221 156 -215 0
221 -156 -215 0
-222 157 -215 0
222 -157 -215 0
-223 158 -215 0
223 -158 -215 0
-224 159 -215 0
224 -159 -215 0
-225 160 -215 0
225 -160 -215 0
-226 267 -215 0
226 -267 -215 0
-227 268 -215 0
227 -268 -215 0
-228 269 -215 0
228 -269 -215 0
-229 10 -215 0
229 -10 -215 0
-230 161 -215 0
230 -161 -215 0
-105 162 -215 0
105 -162 -215 0
-231 163 -215 0
231 -163 -215 0
-232 270 -215 0
232 -270 -215 0
-233 164 -215 0
233 -164 -215 0
-234 165 -215 0
234 -165 -215 0
-235 11 -215 0
235 -11 -215 0
-236 166 -215 0
236 -166 -215 0
-237 271 -215 0
237 -271 -215 0
-238 167 -215 0
238 -167 -215 0
-239 168 -215 0
239 -168 -215 0
-240 169 -215 0
240 -169 -215 0
-241 272 -215 0
241 -272 -215 0
-242 170 -215 0
242 -170 -215 0
-115 171 -215 0
115 -171 -215 0
-243 172 -215 0
243 -172 -215 0
-244 273 -215 0
244 -273 -215 0
-245 12 -215 0
245 -12 -215 0
-246 173 -215 0
246 -173 -215 0
-247 174 -215 0
247 -174 -215 0
-248 274 -215 0
248 -274 -215 0
-249 175 -215 0
249 -175 -215 0
-250 13 -215 0
250 -13 -215 0
-251 176 -215 0
251 -176 -215 0
-252 177 -215 0
252 -177 -215 0
-253 14 -215 0
253 -14 -215 0
-254 178 -215 0
254 -178 -215 0
-149 265 0
-265 149 0
a 215 0
